p edge 78 300
e 1 2
e 1 29
e 1 30
e 1 34
e 1 40
e 1 42
e 1 64
e 2 8
e 2 13
e 2 17
e 2 47
e 2 51
e 2 56
e 2 57
e 2 64
e 2 75
e 3 6
e 3 9
e 3 10
e 3 11
e 3 24
e 3 30
e 3 33
e 3 34
e 3 50
e 3 55
e 3 56
e 4 7
e 4 14
e 4 25
e 4 29
e 4 32
e 4 35
e 4 49
e 4 57
e 4 65
e 5 10
e 5 17
e 5 27
e 5 36
e 5 40
e 5 45
e 5 54
e 5 60
e 5 65
e 5 68
e 5 69
e 6 10
e 6 16
e 6 18
e 6 27
e 6 39
e 6 41
e 6 51
e 6 58
e 6 63
e 7 17
e 7 26
e 7 36
e 7 59
e 8 10
e 8 24
e 8 43
e 8 55
e 8 61
e 8 62
e 8 64
e 8 66
e 8 69
e 8 74
e 9 11
e 9 18
e 9 32
e 9 39
e 9 70
e 9 72
e 10 38
e 10 45
e 10 61
e 10 65
e 10 69
e 11 14
e 11 32
e 11 50
e 11 52
e 11 55
e 11 67
e 11 75
e 12 18
e 12 28
e 12 30
e 12 32
e 12 47
e 12 54
e 12 60
e 12 62
e 13 15
e 13 29
e 13 31
e 13 47
e 13 71
e 14 15
e 14 16
e 14 19
e 14 26
e 14 45
e 14 76
e 14 78
e 15 23
e 15 28
e 15 37
e 15 61
e 15 69
e 16 19
e 16 40
e 16 42
e 16 50
e 16 53
e 16 58
e 16 60
e 16 71
e 17 26
e 17 34
e 17 55
e 17 56
e 17 66
e 18 24
e 18 43
e 18 56
e 18 57
e 18 58
e 18 60
e 18 64
e 18 65
e 19 53
e 19 60
e 19 67
e 19 71
e 19 72
e 20 32
e 20 48
e 20 51
e 20 52
e 21 29
e 21 48
e 21 51
e 21 67
e 21 75
e 22 25
e 22 36
e 22 46
e 22 50
e 22 57
e 22 76
e 23 39
e 23 41
e 23 45
e 23 47
e 23 49
e 23 67
e 23 69
e 23 74
e 24 33
e 24 38
e 24 53
e 24 58
e 24 73
e 24 74
e 25 42
e 25 61
e 25 64
e 25 68
e 26 49
e 26 51
e 26 57
e 26 62
e 26 78
e 27 45
e 27 63
e 27 70
e 28 36
e 28 42
e 28 46
e 28 54
e 28 63
e 29 45
e 29 51
e 29 70
e 30 34
e 30 39
e 30 46
e 30 56
e 31 36
e 31 44
e 31 63
e 31 65
e 32 33
e 32 34
e 32 54
e 32 58
e 32 60
e 32 74
e 32 77
e 33 34
e 33 37
e 33 39
e 33 69
e 33 72
e 33 76
e 34 38
e 34 44
e 34 53
e 34 54
e 34 65
e 34 77
e 35 54
e 35 61
e 35 74
e 35 75
e 35 77
e 36 41
e 36 58
e 36 72
e 36 77
e 37 65
e 37 71
e 38 42
e 38 48
e 38 53
e 38 60
e 38 76
e 38 77
e 39 46
e 39 49
e 39 67
e 40 42
e 40 44
e 40 48
e 40 59
e 40 76
e 41 48
e 41 64
e 42 52
e 42 62
e 42 69
e 43 45
e 43 47
e 43 49
e 43 56
e 43 59
e 43 65
e 43 72
e 44 51
e 44 70
e 45 57
e 45 70
e 45 75
e 46 59
e 46 72
e 47 48
e 47 58
e 47 65
e 47 67
e 48 53
e 48 62
e 49 72
e 49 74
e 50 67
e 50 77
e 51 59
e 51 67
e 51 68
e 51 71
e 51 72
e 52 56
e 52 78
e 54 71
e 56 67
e 56 70
e 56 71
e 56 77
e 57 75
e 57 78
e 58 78
e 59 74
e 60 65
e 60 70
e 61 64
e 61 72
e 61 73
e 63 65
e 63 74
e 64 70
e 65 76
e 67 73
e 67 76
e 68 71
e 69 73
e 74 77
e 76 78
